\ SCIP STATISTICS
\   Problem name     : model
\   Variables        : 552 (232 binary, 0 integer, 0 implicit integer, 320 continuous)
\   Constraints      : 460
Minimize
 Obj: +2501 p_0 +3366 p_1 +18 d_0_6 +14 d_1_6 +19 d_2_8 +17 d_3_2 +13 d_4_2 +16 d_4_5 +15 d_4_6 +17 d_5_8
      +17 d_6_8 +19 d_7_2 +19 d_9_2 +15 d_9_5
Subject to
 c1: +1 z_0_0 +1 z_0_1 >= +1
 c2: +1 z_1_0 +1 z_1_1 >= +1
 c3: +1 z_2_0 +1 z_2_1 >= +1
 c4: +1 z_3_0 +1 z_3_1 >= +1
 c5: +1 z_4_0 +1 z_4_1 >= +1
 c6: +1 z_5_0 +1 z_5_1 >= +1
 c7: +1 z_6_0 +1 z_6_1 >= +1
 c8: +1 z_7_0 +1 z_7_1 >= +1
 c9: +1 z_8_0 +1 z_8_1 >= +1
 c10: +1 z_9_0 +1 z_9_1 >= +1
 c11: +1 z_0_0 -1 p_0 <= +0
 c12: +1 z_0_1 -1 p_1 <= +0
 c13: +1 z_1_0 -1 p_0 <= +0
 c14: +1 z_1_1 -1 p_1 <= +0
 c15: +1 z_2_0 -1 p_0 <= +0
 c16: +1 z_2_1 -1 p_1 <= +0
 c17: +1 z_3_0 -1 p_0 <= +0
 c18: +1 z_3_1 -1 p_1 <= +0
 c19: +1 z_4_0 -1 p_0 <= +0
 c20: +1 z_4_1 -1 p_1 <= +0
 c21: +1 z_5_0 -1 p_0 <= +0
 c22: +1 z_5_1 -1 p_1 <= +0
 c23: +1 z_6_0 -1 p_0 <= +0
 c24: +1 z_6_1 -1 p_1 <= +0
 c25: +1 z_7_0 -1 p_0 <= +0
 c26: +1 z_7_1 -1 p_1 <= +0
 c27: +1 z_8_0 -1 p_0 <= +0
 c28: +1 z_8_1 -1 p_1 <= +0
 c29: +1 z_9_0 -1 p_0 <= +0
 c30: +1 z_9_1 -1 p_1 <= +0
 c31: +1 d_0_6 -1 a_0_6 -1 b_0_6 = +0
 c32: +1 a_0_6 -1 x_0 +1 x_6 >= +0
 c33: +1 a_0_6 -1 x_6 +1 x_0 >= +0
 c34: +1 b_0_6 -1 y_0 +1 y_6 >= +0
 c35: +1 b_0_6 -1 y_6 +1 y_0 >= +0
 c36: +1 d_1_6 -1 a_1_6 -1 b_1_6 = +0
 c37: +1 a_1_6 -1 x_1 +1 x_6 >= +0
 c38: +1 a_1_6 -1 x_6 +1 x_1 >= +0
 c39: +1 b_1_6 -1 y_1 +1 y_6 >= +0
 c40: +1 b_1_6 -1 y_6 +1 y_1 >= +0
 c41: +1 d_2_8 -1 a_2_8 -1 b_2_8 = +0
 c42: +1 a_2_8 -1 x_2 +1 x_8 >= +0
 c43: +1 a_2_8 -1 x_8 +1 x_2 >= +0
 c44: +1 b_2_8 -1 y_2 +1 y_8 >= +0
 c45: +1 b_2_8 -1 y_8 +1 y_2 >= +0
 c46: +1 d_3_2 -1 a_3_2 -1 b_3_2 = +0
 c47: +1 a_3_2 -1 x_3 +1 x_2 >= +0
 c48: +1 a_3_2 -1 x_2 +1 x_3 >= +0
 c49: +1 b_3_2 -1 y_3 +1 y_2 >= +0
 c50: +1 b_3_2 -1 y_2 +1 y_3 >= +0
 c51: +1 d_4_5 -1 a_4_5 -1 b_4_5 = +0
 c52: +1 a_4_5 -1 x_4 +1 x_5 >= +0
 c53: +1 a_4_5 -1 x_5 +1 x_4 >= +0
 c54: +1 b_4_5 -1 y_4 +1 y_5 >= +0
 c55: +1 b_4_5 -1 y_5 +1 y_4 >= +0
 c56: +1 d_4_2 -1 a_4_2 -1 b_4_2 = +0
 c57: +1 a_4_2 -1 x_4 +1 x_2 >= +0
 c58: +1 a_4_2 -1 x_2 +1 x_4 >= +0
 c59: +1 b_4_2 -1 y_4 +1 y_2 >= +0
 c60: +1 b_4_2 -1 y_2 +1 y_4 >= +0
 c61: +1 d_4_6 -1 a_4_6 -1 b_4_6 = +0
 c62: +1 a_4_6 -1 x_4 +1 x_6 >= +0
 c63: +1 a_4_6 -1 x_6 +1 x_4 >= +0
 c64: +1 b_4_6 -1 y_4 +1 y_6 >= +0
 c65: +1 b_4_6 -1 y_6 +1 y_4 >= +0
 c66: +1 d_5_8 -1 a_5_8 -1 b_5_8 = +0
 c67: +1 a_5_8 -1 x_5 +1 x_8 >= +0
 c68: +1 a_5_8 -1 x_8 +1 x_5 >= +0
 c69: +1 b_5_8 -1 y_5 +1 y_8 >= +0
 c70: +1 b_5_8 -1 y_8 +1 y_5 >= +0
 c71: +1 d_6_8 -1 a_6_8 -1 b_6_8 = +0
 c72: +1 a_6_8 -1 x_6 +1 x_8 >= +0
 c73: +1 a_6_8 -1 x_8 +1 x_6 >= +0
 c74: +1 b_6_8 -1 y_6 +1 y_8 >= +0
 c75: +1 b_6_8 -1 y_8 +1 y_6 >= +0
 c76: +1 d_7_2 -1 a_7_2 -1 b_7_2 = +0
 c77: +1 a_7_2 -1 x_7 +1 x_2 >= +0
 c78: +1 a_7_2 -1 x_2 +1 x_7 >= +0
 c79: +1 b_7_2 -1 y_7 +1 y_2 >= +0
 c80: +1 b_7_2 -1 y_2 +1 y_7 >= +0
 c81: +1 d_9_5 -1 a_9_5 -1 b_9_5 = +0
 c82: +1 a_9_5 -1 x_9 +1 x_5 >= +0
 c83: +1 a_9_5 -1 x_5 +1 x_9 >= +0
 c84: +1 b_9_5 -1 y_9 +1 y_5 >= +0
 c85: +1 b_9_5 -1 y_5 +1 y_9 >= +0
 c86: +1 d_9_2 -1 a_9_2 -1 b_9_2 = +0
 c87: +1 a_9_2 -1 x_9 +1 x_2 >= +0
 c88: +1 a_9_2 -1 x_2 +1 x_9 >= +0
 c89: +1 b_9_2 -1 y_9 +1 y_2 >= +0
 c90: +1 b_9_2 -1 y_2 +1 y_9 >= +0
 c91: +1 l_0_1 +1 l_1_0 +1 m_0_1 +1 m_1_0 -1 z_0_0 -1 z_1_0 >= -1
 c92: +1 l_0_2 +1 l_2_0 +1 m_0_2 +1 m_2_0 -1 z_0_0 -1 z_2_0 >= -1
 c93: +1 l_1_2 +1 l_2_1 +1 m_1_2 +1 m_2_1 -1 z_1_0 -1 z_2_0 >= -1
 c94: +1 l_0_3 +1 l_3_0 +1 m_0_3 +1 m_3_0 -1 z_0_0 -1 z_3_0 >= -1
 c95: +1 l_1_3 +1 l_3_1 +1 m_1_3 +1 m_3_1 -1 z_1_0 -1 z_3_0 >= -1
 c96: +1 l_2_3 +1 l_3_2 +1 m_2_3 +1 m_3_2 -1 z_2_0 -1 z_3_0 >= -1
 c97: +1 l_0_4 +1 l_4_0 +1 m_0_4 +1 m_4_0 -1 z_0_0 -1 z_4_0 >= -1
 c98: +1 l_1_4 +1 l_4_1 +1 m_1_4 +1 m_4_1 -1 z_1_0 -1 z_4_0 >= -1
 c99: +1 l_2_4 +1 l_4_2 +1 m_2_4 +1 m_4_2 -1 z_2_0 -1 z_4_0 >= -1
 c100: +1 l_3_4 +1 l_4_3 +1 m_3_4 +1 m_4_3 -1 z_3_0 -1 z_4_0 >= -1
 c101: +1 l_0_5 +1 l_5_0 +1 m_0_5 +1 m_5_0 -1 z_0_0 -1 z_5_0 >= -1
 c102: +1 l_1_5 +1 l_5_1 +1 m_1_5 +1 m_5_1 -1 z_1_0 -1 z_5_0 >= -1
 c103: +1 l_2_5 +1 l_5_2 +1 m_2_5 +1 m_5_2 -1 z_2_0 -1 z_5_0 >= -1
 c104: +1 l_3_5 +1 l_5_3 +1 m_3_5 +1 m_5_3 -1 z_3_0 -1 z_5_0 >= -1
 c105: +1 l_4_5 +1 l_5_4 +1 m_4_5 +1 m_5_4 -1 z_4_0 -1 z_5_0 >= -1
 c106: +1 l_0_6 +1 l_6_0 +1 m_0_6 +1 m_6_0 -1 z_0_0 -1 z_6_0 >= -1
 c107: +1 l_1_6 +1 l_6_1 +1 m_1_6 +1 m_6_1 -1 z_1_0 -1 z_6_0 >= -1
 c108: +1 l_2_6 +1 l_6_2 +1 m_2_6 +1 m_6_2 -1 z_2_0 -1 z_6_0 >= -1
 c109: +1 l_3_6 +1 l_6_3 +1 m_3_6 +1 m_6_3 -1 z_3_0 -1 z_6_0 >= -1
 c110: +1 l_4_6 +1 l_6_4 +1 m_4_6 +1 m_6_4 -1 z_4_0 -1 z_6_0 >= -1
 c111: +1 l_5_6 +1 l_6_5 +1 m_5_6 +1 m_6_5 -1 z_5_0 -1 z_6_0 >= -1
 c112: +1 l_0_7 +1 l_7_0 +1 m_0_7 +1 m_7_0 -1 z_0_0 -1 z_7_0 >= -1
 c113: +1 l_1_7 +1 l_7_1 +1 m_1_7 +1 m_7_1 -1 z_1_0 -1 z_7_0 >= -1
 c114: +1 l_2_7 +1 l_7_2 +1 m_2_7 +1 m_7_2 -1 z_2_0 -1 z_7_0 >= -1
 c115: +1 l_3_7 +1 l_7_3 +1 m_3_7 +1 m_7_3 -1 z_3_0 -1 z_7_0 >= -1
 c116: +1 l_4_7 +1 l_7_4 +1 m_4_7 +1 m_7_4 -1 z_4_0 -1 z_7_0 >= -1
 c117: +1 l_5_7 +1 l_7_5 +1 m_5_7 +1 m_7_5 -1 z_5_0 -1 z_7_0 >= -1
 c118: +1 l_6_7 +1 l_7_6 +1 m_6_7 +1 m_7_6 -1 z_6_0 -1 z_7_0 >= -1
 c119: +1 l_0_8 +1 l_8_0 +1 m_0_8 +1 m_8_0 -1 z_0_0 -1 z_8_0 >= -1
 c120: +1 l_1_8 +1 l_8_1 +1 m_1_8 +1 m_8_1 -1 z_1_0 -1 z_8_0 >= -1
 c121: +1 l_2_8 +1 l_8_2 +1 m_2_8 +1 m_8_2 -1 z_2_0 -1 z_8_0 >= -1
 c122: +1 l_3_8 +1 l_8_3 +1 m_3_8 +1 m_8_3 -1 z_3_0 -1 z_8_0 >= -1
 c123: +1 l_4_8 +1 l_8_4 +1 m_4_8 +1 m_8_4 -1 z_4_0 -1 z_8_0 >= -1
 c124: +1 l_5_8 +1 l_8_5 +1 m_5_8 +1 m_8_5 -1 z_5_0 -1 z_8_0 >= -1
 c125: +1 l_6_8 +1 l_8_6 +1 m_6_8 +1 m_8_6 -1 z_6_0 -1 z_8_0 >= -1
 c126: +1 l_7_8 +1 l_8_7 +1 m_7_8 +1 m_8_7 -1 z_7_0 -1 z_8_0 >= -1
 c127: +1 l_0_9 +1 l_9_0 +1 m_0_9 +1 m_9_0 -1 z_0_0 -1 z_9_0 >= -1
 c128: +1 l_1_9 +1 l_9_1 +1 m_1_9 +1 m_9_1 -1 z_1_0 -1 z_9_0 >= -1
 c129: +1 l_2_9 +1 l_9_2 +1 m_2_9 +1 m_9_2 -1 z_2_0 -1 z_9_0 >= -1
 c130: +1 l_3_9 +1 l_9_3 +1 m_3_9 +1 m_9_3 -1 z_3_0 -1 z_9_0 >= -1
 c131: +1 l_4_9 +1 l_9_4 +1 m_4_9 +1 m_9_4 -1 z_4_0 -1 z_9_0 >= -1
 c132: +1 l_5_9 +1 l_9_5 +1 m_5_9 +1 m_9_5 -1 z_5_0 -1 z_9_0 >= -1
 c133: +1 l_6_9 +1 l_9_6 +1 m_6_9 +1 m_9_6 -1 z_6_0 -1 z_9_0 >= -1
 c134: +1 l_7_9 +1 l_9_7 +1 m_7_9 +1 m_9_7 -1 z_7_0 -1 z_9_0 >= -1
 c135: +1 l_8_9 +1 l_9_8 +1 m_8_9 +1 m_9_8 -1 z_8_0 -1 z_9_0 >= -1
 c136: +1 l_0_1 +1 l_1_0 +1 m_0_1 +1 m_1_0 -1 z_0_1 -1 z_1_1 >= -1
 c137: +1 l_0_2 +1 l_2_0 +1 m_0_2 +1 m_2_0 -1 z_0_1 -1 z_2_1 >= -1
 c138: +1 l_1_2 +1 l_2_1 +1 m_1_2 +1 m_2_1 -1 z_1_1 -1 z_2_1 >= -1
 c139: +1 l_0_3 +1 l_3_0 +1 m_0_3 +1 m_3_0 -1 z_0_1 -1 z_3_1 >= -1
 c140: +1 l_1_3 +1 l_3_1 +1 m_1_3 +1 m_3_1 -1 z_1_1 -1 z_3_1 >= -1
 c141: +1 l_2_3 +1 l_3_2 +1 m_2_3 +1 m_3_2 -1 z_2_1 -1 z_3_1 >= -1
 c142: +1 l_0_4 +1 l_4_0 +1 m_0_4 +1 m_4_0 -1 z_0_1 -1 z_4_1 >= -1
 c143: +1 l_1_4 +1 l_4_1 +1 m_1_4 +1 m_4_1 -1 z_1_1 -1 z_4_1 >= -1
 c144: +1 l_2_4 +1 l_4_2 +1 m_2_4 +1 m_4_2 -1 z_2_1 -1 z_4_1 >= -1
 c145: +1 l_3_4 +1 l_4_3 +1 m_3_4 +1 m_4_3 -1 z_3_1 -1 z_4_1 >= -1
 c146: +1 l_0_5 +1 l_5_0 +1 m_0_5 +1 m_5_0 -1 z_0_1 -1 z_5_1 >= -1
 c147: +1 l_1_5 +1 l_5_1 +1 m_1_5 +1 m_5_1 -1 z_1_1 -1 z_5_1 >= -1
 c148: +1 l_2_5 +1 l_5_2 +1 m_2_5 +1 m_5_2 -1 z_2_1 -1 z_5_1 >= -1
 c149: +1 l_3_5 +1 l_5_3 +1 m_3_5 +1 m_5_3 -1 z_3_1 -1 z_5_1 >= -1
 c150: +1 l_4_5 +1 l_5_4 +1 m_4_5 +1 m_5_4 -1 z_4_1 -1 z_5_1 >= -1
 c151: +1 l_0_6 +1 l_6_0 +1 m_0_6 +1 m_6_0 -1 z_0_1 -1 z_6_1 >= -1
 c152: +1 l_1_6 +1 l_6_1 +1 m_1_6 +1 m_6_1 -1 z_1_1 -1 z_6_1 >= -1
 c153: +1 l_2_6 +1 l_6_2 +1 m_2_6 +1 m_6_2 -1 z_2_1 -1 z_6_1 >= -1
 c154: +1 l_3_6 +1 l_6_3 +1 m_3_6 +1 m_6_3 -1 z_3_1 -1 z_6_1 >= -1
 c155: +1 l_4_6 +1 l_6_4 +1 m_4_6 +1 m_6_4 -1 z_4_1 -1 z_6_1 >= -1
 c156: +1 l_5_6 +1 l_6_5 +1 m_5_6 +1 m_6_5 -1 z_5_1 -1 z_6_1 >= -1
 c157: +1 l_0_7 +1 l_7_0 +1 m_0_7 +1 m_7_0 -1 z_0_1 -1 z_7_1 >= -1
 c158: +1 l_1_7 +1 l_7_1 +1 m_1_7 +1 m_7_1 -1 z_1_1 -1 z_7_1 >= -1
 c159: +1 l_2_7 +1 l_7_2 +1 m_2_7 +1 m_7_2 -1 z_2_1 -1 z_7_1 >= -1
 c160: +1 l_3_7 +1 l_7_3 +1 m_3_7 +1 m_7_3 -1 z_3_1 -1 z_7_1 >= -1
 c161: +1 l_4_7 +1 l_7_4 +1 m_4_7 +1 m_7_4 -1 z_4_1 -1 z_7_1 >= -1
 c162: +1 l_5_7 +1 l_7_5 +1 m_5_7 +1 m_7_5 -1 z_5_1 -1 z_7_1 >= -1
 c163: +1 l_6_7 +1 l_7_6 +1 m_6_7 +1 m_7_6 -1 z_6_1 -1 z_7_1 >= -1
 c164: +1 l_0_8 +1 l_8_0 +1 m_0_8 +1 m_8_0 -1 z_0_1 -1 z_8_1 >= -1
 c165: +1 l_1_8 +1 l_8_1 +1 m_1_8 +1 m_8_1 -1 z_1_1 -1 z_8_1 >= -1
 c166: +1 l_2_8 +1 l_8_2 +1 m_2_8 +1 m_8_2 -1 z_2_1 -1 z_8_1 >= -1
 c167: +1 l_3_8 +1 l_8_3 +1 m_3_8 +1 m_8_3 -1 z_3_1 -1 z_8_1 >= -1
 c168: +1 l_4_8 +1 l_8_4 +1 m_4_8 +1 m_8_4 -1 z_4_1 -1 z_8_1 >= -1
 c169: +1 l_5_8 +1 l_8_5 +1 m_5_8 +1 m_8_5 -1 z_5_1 -1 z_8_1 >= -1
 c170: +1 l_6_8 +1 l_8_6 +1 m_6_8 +1 m_8_6 -1 z_6_1 -1 z_8_1 >= -1
 c171: +1 l_7_8 +1 l_8_7 +1 m_7_8 +1 m_8_7 -1 z_7_1 -1 z_8_1 >= -1
 c172: +1 l_0_9 +1 l_9_0 +1 m_0_9 +1 m_9_0 -1 z_0_1 -1 z_9_1 >= -1
 c173: +1 l_1_9 +1 l_9_1 +1 m_1_9 +1 m_9_1 -1 z_1_1 -1 z_9_1 >= -1
 c174: +1 l_2_9 +1 l_9_2 +1 m_2_9 +1 m_9_2 -1 z_2_1 -1 z_9_1 >= -1
 c175: +1 l_3_9 +1 l_9_3 +1 m_3_9 +1 m_9_3 -1 z_3_1 -1 z_9_1 >= -1
 c176: +1 l_4_9 +1 l_9_4 +1 m_4_9 +1 m_9_4 -1 z_4_1 -1 z_9_1 >= -1
 c177: +1 l_5_9 +1 l_9_5 +1 m_5_9 +1 m_9_5 -1 z_5_1 -1 z_9_1 >= -1
 c178: +1 l_6_9 +1 l_9_6 +1 m_6_9 +1 m_9_6 -1 z_6_1 -1 z_9_1 >= -1
 c179: +1 l_7_9 +1 l_9_7 +1 m_7_9 +1 m_9_7 -1 z_7_1 -1 z_9_1 >= -1
 c180: +1 l_8_9 +1 l_9_8 +1 m_8_9 +1 m_9_8 -1 z_8_1 -1 z_9_1 >= -1
 c181: -14 r_0 +1000000 l_0_0 <= +999938
 c182: +14 r_0 +1000000 m_0_0 <= +999952
 c183: +1 x_1 -10 r_1 -1 x_0 -7 r_0 +1000000 l_1_0 <= +999944.5
 c184: +1 y_1 +10 r_1 -1 y_0 +7 r_0 +1000000 m_1_0 <= +999961.5
 c185: +1 x_2 -18.5 r_2 -1 x_0 -7 r_0 +1000000 l_2_0 <= +999935.5
 c186: +1 y_2 +18.5 r_2 -1 y_0 +7 r_0 +1000000 m_2_0 <= +999961
 c187: +1 x_3 -16 r_3 -1 x_0 -7 r_0 +1000000 l_3_0 <= +999940
 c188: +1 y_3 +16 r_3 -1 y_0 +7 r_0 +1000000 m_3_0 <= +999963
 c189: +1 x_4 -1 r_4 -1 x_0 -7 r_0 +1000000 l_4_0 <= +999947.5
 c190: +1 y_4 +1 r_4 -1 y_0 +7 r_0 +1000000 m_4_0 <= +999955.5
 c191: +1 x_5 -6 r_5 -1 x_0 -7 r_0 +1000000 l_5_0 <= +999939
 c192: +1 y_5 +6 r_5 -1 y_0 +7 r_0 +1000000 m_5_0 <= +999952
 c193: +1 x_6 -12 r_6 -1 x_0 -7 r_0 +1000000 l_6_0 <= +999942
 c194: +1 y_6 +12 r_6 -1 y_0 +7 r_0 +1000000 m_6_0 <= +999961
 c195: +1 x_7 -19.5 r_7 -1 x_0 -7 r_0 +1000000 l_7_0 <= +999935
 c196: +1 y_7 +19.5 r_7 -1 y_0 +7 r_0 +1000000 m_7_0 <= +999961.5
 c197: +1 x_8 -12 r_8 -1 x_0 -7 r_0 +1000000 l_8_0 <= +999945
 c198: +1 y_8 +12 r_8 -1 y_0 +7 r_0 +1000000 m_8_0 <= +999964
 c199: +1 x_9 -13 r_9 -1 x_0 -7 r_0 +1000000 l_9_0 <= +999935
 c200: +1 y_9 +13 r_9 -1 y_0 +7 r_0 +1000000 m_9_0 <= +999955
 c201: +1 x_0 -7 r_0 -1 x_1 -10 r_1 +1000000 l_0_1 <= +999944.5
 c202: +1 y_0 +7 r_0 -1 y_1 +10 r_1 +1000000 m_0_1 <= +999961.5
 c203: -20 r_1 +1000000 l_1_1 <= +999951
 c204: +20 r_1 +1000000 m_1_1 <= +999971
 c205: +1 x_2 -18.5 r_2 -1 x_1 -10 r_1 +1000000 l_2_1 <= +999942
 c206: +1 y_2 +18.5 r_2 -1 y_1 +10 r_1 +1000000 m_2_1 <= +999970.5
 c207: +1 x_3 -16 r_3 -1 x_1 -10 r_1 +1000000 l_3_1 <= +999946.5
 c208: +1 y_3 +16 r_3 -1 y_1 +10 r_1 +1000000 m_3_1 <= +999972.5
 c209: +1 x_4 -1 r_4 -1 x_1 -10 r_1 +1000000 l_4_1 <= +999954
 c210: +1 y_4 +1 r_4 -1 y_1 +10 r_1 +1000000 m_4_1 <= +999965
 c211: +1 x_5 -6 r_5 -1 x_1 -10 r_1 +1000000 l_5_1 <= +999945.5
 c212: +1 y_5 +6 r_5 -1 y_1 +10 r_1 +1000000 m_5_1 <= +999961.5
 c213: +1 x_6 -12 r_6 -1 x_1 -10 r_1 +1000000 l_6_1 <= +999948.5
 c214: +1 y_6 +12 r_6 -1 y_1 +10 r_1 +1000000 m_6_1 <= +999970.5
 c215: +1 x_7 -19.5 r_7 -1 x_1 -10 r_1 +1000000 l_7_1 <= +999941.5
 c216: +1 y_7 +19.5 r_7 -1 y_1 +10 r_1 +1000000 m_7_1 <= +999971
 c217: +1 x_8 -12 r_8 -1 x_1 -10 r_1 +1000000 l_8_1 <= +999951.5
 c218: +1 y_8 +12 r_8 -1 y_1 +10 r_1 +1000000 m_8_1 <= +999973.5
 c219: +1 x_9 -13 r_9 -1 x_1 -10 r_1 +1000000 l_9_1 <= +999941.5
 c220: +1 y_9 +13 r_9 -1 y_1 +10 r_1 +1000000 m_9_1 <= +999964.5
 c221: +1 x_0 -7 r_0 -1 x_2 -18.5 r_2 +1000000 l_0_2 <= +999935.5
 c222: +1 y_0 +7 r_0 -1 y_2 +18.5 r_2 +1000000 m_0_2 <= +999961
 c223: +1 x_1 -10 r_1 -1 x_2 -18.5 r_2 +1000000 l_1_2 <= +999942
 c224: +1 y_1 +10 r_1 -1 y_2 +18.5 r_2 +1000000 m_1_2 <= +999970.5
 c225: -37 r_2 +1000000 l_2_2 <= +999933
 c226: +37 r_2 +1000000 m_2_2 <= +999970
 c227: +1 x_3 -16 r_3 -1 x_2 -18.5 r_2 +1000000 l_3_2 <= +999937.5
 c228: +1 y_3 +16 r_3 -1 y_2 +18.5 r_2 +1000000 m_3_2 <= +999972
 c229: +1 x_4 -1 r_4 -1 x_2 -18.5 r_2 +1000000 l_4_2 <= +999945
 c230: +1 y_4 +1 r_4 -1 y_2 +18.5 r_2 +1000000 m_4_2 <= +999964.5
 c231: +1 x_5 -6 r_5 -1 x_2 -18.5 r_2 +1000000 l_5_2 <= +999936.5
 c232: +1 y_5 +6 r_5 -1 y_2 +18.5 r_2 +1000000 m_5_2 <= +999961
 c233: +1 x_6 -12 r_6 -1 x_2 -18.5 r_2 +1000000 l_6_2 <= +999939.5
 c234: +1 y_6 +12 r_6 -1 y_2 +18.5 r_2 +1000000 m_6_2 <= +999970
 c235: +1 x_7 -19.5 r_7 -1 x_2 -18.5 r_2 +1000000 l_7_2 <= +999932.5
 c236: +1 y_7 +19.5 r_7 -1 y_2 +18.5 r_2 +1000000 m_7_2 <= +999970.5
 c237: +1 x_8 -12 r_8 -1 x_2 -18.5 r_2 +1000000 l_8_2 <= +999942.5
 c238: +1 y_8 +12 r_8 -1 y_2 +18.5 r_2 +1000000 m_8_2 <= +999973
 c239: +1 x_9 -13 r_9 -1 x_2 -18.5 r_2 +1000000 l_9_2 <= +999932.5
 c240: +1 y_9 +13 r_9 -1 y_2 +18.5 r_2 +1000000 m_9_2 <= +999964
 c241: +1 x_0 -7 r_0 -1 x_3 -16 r_3 +1000000 l_0_3 <= +999940
 c242: +1 y_0 +7 r_0 -1 y_3 +16 r_3 +1000000 m_0_3 <= +999963
 c243: +1 x_1 -10 r_1 -1 x_3 -16 r_3 +1000000 l_1_3 <= +999946.5
 c244: +1 y_1 +10 r_1 -1 y_3 +16 r_3 +1000000 m_1_3 <= +999972.5
 c245: +1 x_2 -18.5 r_2 -1 x_3 -16 r_3 +1000000 l_2_3 <= +999937.5
 c246: +1 y_2 +18.5 r_2 -1 y_3 +16 r_3 +1000000 m_2_3 <= +999972
 c247: -32 r_3 +1000000 l_3_3 <= +999942
 c248: +32 r_3 +1000000 m_3_3 <= +999974
 c249: +1 x_4 -1 r_4 -1 x_3 -16 r_3 +1000000 l_4_3 <= +999949.5
 c250: +1 y_4 +1 r_4 -1 y_3 +16 r_3 +1000000 m_4_3 <= +999966.5
 c251: +1 x_5 -6 r_5 -1 x_3 -16 r_3 +1000000 l_5_3 <= +999941
 c252: +1 y_5 +6 r_5 -1 y_3 +16 r_3 +1000000 m_5_3 <= +999963
 c253: +1 x_6 -12 r_6 -1 x_3 -16 r_3 +1000000 l_6_3 <= +999944
 c254: +1 y_6 +12 r_6 -1 y_3 +16 r_3 +1000000 m_6_3 <= +999972
 c255: +1 x_7 -19.5 r_7 -1 x_3 -16 r_3 +1000000 l_7_3 <= +999937
 c256: +1 y_7 +19.5 r_7 -1 y_3 +16 r_3 +1000000 m_7_3 <= +999972.5
 c257: +1 x_8 -12 r_8 -1 x_3 -16 r_3 +1000000 l_8_3 <= +999947
 c258: +1 y_8 +12 r_8 -1 y_3 +16 r_3 +1000000 m_8_3 <= +999975
 c259: +1 x_9 -13 r_9 -1 x_3 -16 r_3 +1000000 l_9_3 <= +999937
 c260: +1 y_9 +13 r_9 -1 y_3 +16 r_3 +1000000 m_9_3 <= +999966
 c261: +1 x_0 -7 r_0 -1 x_4 -1 r_4 +1000000 l_0_4 <= +999947.5
 c262: +1 y_0 +7 r_0 -1 y_4 +1 r_4 +1000000 m_0_4 <= +999955.5
 c263: +1 x_1 -10 r_1 -1 x_4 -1 r_4 +1000000 l_1_4 <= +999954
 c264: +1 y_1 +10 r_1 -1 y_4 +1 r_4 +1000000 m_1_4 <= +999965
 c265: +1 x_2 -18.5 r_2 -1 x_4 -1 r_4 +1000000 l_2_4 <= +999945
 c266: +1 y_2 +18.5 r_2 -1 y_4 +1 r_4 +1000000 m_2_4 <= +999964.5
 c267: +1 x_3 -16 r_3 -1 x_4 -1 r_4 +1000000 l_3_4 <= +999949.5
 c268: +1 y_3 +16 r_3 -1 y_4 +1 r_4 +1000000 m_3_4 <= +999966.5
 c269: -2 r_4 +1000000 l_4_4 <= +999957
 c270: +2 r_4 +1000000 m_4_4 <= +999959
 c271: +1 x_5 -6 r_5 -1 x_4 -1 r_4 +1000000 l_5_4 <= +999948.5
 c272: +1 y_5 +6 r_5 -1 y_4 +1 r_4 +1000000 m_5_4 <= +999955.5
 c273: +1 x_6 -12 r_6 -1 x_4 -1 r_4 +1000000 l_6_4 <= +999951.5
 c274: +1 y_6 +12 r_6 -1 y_4 +1 r_4 +1000000 m_6_4 <= +999964.5
 c275: +1 x_7 -19.5 r_7 -1 x_4 -1 r_4 +1000000 l_7_4 <= +999944.5
 c276: +1 y_7 +19.5 r_7 -1 y_4 +1 r_4 +1000000 m_7_4 <= +999965
 c277: +1 x_8 -12 r_8 -1 x_4 -1 r_4 +1000000 l_8_4 <= +999954.5
 c278: +1 y_8 +12 r_8 -1 y_4 +1 r_4 +1000000 m_8_4 <= +999967.5
 c279: +1 x_9 -13 r_9 -1 x_4 -1 r_4 +1000000 l_9_4 <= +999944.5
 c280: +1 y_9 +13 r_9 -1 y_4 +1 r_4 +1000000 m_9_4 <= +999958.5
 c281: +1 x_0 -7 r_0 -1 x_5 -6 r_5 +1000000 l_0_5 <= +999939
 c282: +1 y_0 +7 r_0 -1 y_5 +6 r_5 +1000000 m_0_5 <= +999952
 c283: +1 x_1 -10 r_1 -1 x_5 -6 r_5 +1000000 l_1_5 <= +999945.5
 c284: +1 y_1 +10 r_1 -1 y_5 +6 r_5 +1000000 m_1_5 <= +999961.5
 c285: +1 x_2 -18.5 r_2 -1 x_5 -6 r_5 +1000000 l_2_5 <= +999936.5
 c286: +1 y_2 +18.5 r_2 -1 y_5 +6 r_5 +1000000 m_2_5 <= +999961
 c287: +1 x_3 -16 r_3 -1 x_5 -6 r_5 +1000000 l_3_5 <= +999941
 c288: +1 y_3 +16 r_3 -1 y_5 +6 r_5 +1000000 m_3_5 <= +999963
 c289: +1 x_4 -1 r_4 -1 x_5 -6 r_5 +1000000 l_4_5 <= +999948.5
 c290: +1 y_4 +1 r_4 -1 y_5 +6 r_5 +1000000 m_4_5 <= +999955.5
 c291: -12 r_5 +1000000 l_5_5 <= +999940
 c292: +12 r_5 +1000000 m_5_5 <= +999952
 c293: +1 x_6 -12 r_6 -1 x_5 -6 r_5 +1000000 l_6_5 <= +999943
 c294: +1 y_6 +12 r_6 -1 y_5 +6 r_5 +1000000 m_6_5 <= +999961
 c295: +1 x_7 -19.5 r_7 -1 x_5 -6 r_5 +1000000 l_7_5 <= +999936
 c296: +1 y_7 +19.5 r_7 -1 y_5 +6 r_5 +1000000 m_7_5 <= +999961.5
 c297: +1 x_8 -12 r_8 -1 x_5 -6 r_5 +1000000 l_8_5 <= +999946
 c298: +1 y_8 +12 r_8 -1 y_5 +6 r_5 +1000000 m_8_5 <= +999964
 c299: +1 x_9 -13 r_9 -1 x_5 -6 r_5 +1000000 l_9_5 <= +999936
 c300: +1 y_9 +13 r_9 -1 y_5 +6 r_5 +1000000 m_9_5 <= +999955
 c301: +1 x_0 -7 r_0 -1 x_6 -12 r_6 +1000000 l_0_6 <= +999942
 c302: +1 y_0 +7 r_0 -1 y_6 +12 r_6 +1000000 m_0_6 <= +999961
 c303: +1 x_1 -10 r_1 -1 x_6 -12 r_6 +1000000 l_1_6 <= +999948.5
 c304: +1 y_1 +10 r_1 -1 y_6 +12 r_6 +1000000 m_1_6 <= +999970.5
 c305: +1 x_2 -18.5 r_2 -1 x_6 -12 r_6 +1000000 l_2_6 <= +999939.5
 c306: +1 y_2 +18.5 r_2 -1 y_6 +12 r_6 +1000000 m_2_6 <= +999970
 c307: +1 x_3 -16 r_3 -1 x_6 -12 r_6 +1000000 l_3_6 <= +999944
 c308: +1 y_3 +16 r_3 -1 y_6 +12 r_6 +1000000 m_3_6 <= +999972
 c309: +1 x_4 -1 r_4 -1 x_6 -12 r_6 +1000000 l_4_6 <= +999951.5
 c310: +1 y_4 +1 r_4 -1 y_6 +12 r_6 +1000000 m_4_6 <= +999964.5
 c311: +1 x_5 -6 r_5 -1 x_6 -12 r_6 +1000000 l_5_6 <= +999943
 c312: +1 y_5 +6 r_5 -1 y_6 +12 r_6 +1000000 m_5_6 <= +999961
 c313: -24 r_6 +1000000 l_6_6 <= +999946
 c314: +24 r_6 +1000000 m_6_6 <= +999970
 c315: +1 x_7 -19.5 r_7 -1 x_6 -12 r_6 +1000000 l_7_6 <= +999939
 c316: +1 y_7 +19.5 r_7 -1 y_6 +12 r_6 +1000000 m_7_6 <= +999970.5
 c317: +1 x_8 -12 r_8 -1 x_6 -12 r_6 +1000000 l_8_6 <= +999949
 c318: +1 y_8 +12 r_8 -1 y_6 +12 r_6 +1000000 m_8_6 <= +999973
 c319: +1 x_9 -13 r_9 -1 x_6 -12 r_6 +1000000 l_9_6 <= +999939
 c320: +1 y_9 +13 r_9 -1 y_6 +12 r_6 +1000000 m_9_6 <= +999964
 c321: +1 x_0 -7 r_0 -1 x_7 -19.5 r_7 +1000000 l_0_7 <= +999935
 c322: +1 y_0 +7 r_0 -1 y_7 +19.5 r_7 +1000000 m_0_7 <= +999961.5
 c323: +1 x_1 -10 r_1 -1 x_7 -19.5 r_7 +1000000 l_1_7 <= +999941.5
 c324: +1 y_1 +10 r_1 -1 y_7 +19.5 r_7 +1000000 m_1_7 <= +999971
 c325: +1 x_2 -18.5 r_2 -1 x_7 -19.5 r_7 +1000000 l_2_7 <= +999932.5
 c326: +1 y_2 +18.5 r_2 -1 y_7 +19.5 r_7 +1000000 m_2_7 <= +999970.5
 c327: +1 x_3 -16 r_3 -1 x_7 -19.5 r_7 +1000000 l_3_7 <= +999937
 c328: +1 y_3 +16 r_3 -1 y_7 +19.5 r_7 +1000000 m_3_7 <= +999972.5
 c329: +1 x_4 -1 r_4 -1 x_7 -19.5 r_7 +1000000 l_4_7 <= +999944.5
 c330: +1 y_4 +1 r_4 -1 y_7 +19.5 r_7 +1000000 m_4_7 <= +999965
 c331: +1 x_5 -6 r_5 -1 x_7 -19.5 r_7 +1000000 l_5_7 <= +999936
 c332: +1 y_5 +6 r_5 -1 y_7 +19.5 r_7 +1000000 m_5_7 <= +999961.5
 c333: +1 x_6 -12 r_6 -1 x_7 -19.5 r_7 +1000000 l_6_7 <= +999939
 c334: +1 y_6 +12 r_6 -1 y_7 +19.5 r_7 +1000000 m_6_7 <= +999970.5
 c335: -39 r_7 +1000000 l_7_7 <= +999932
 c336: +39 r_7 +1000000 m_7_7 <= +999971
 c337: +1 x_8 -12 r_8 -1 x_7 -19.5 r_7 +1000000 l_8_7 <= +999942
 c338: +1 y_8 +12 r_8 -1 y_7 +19.5 r_7 +1000000 m_8_7 <= +999973.5
 c339: +1 x_9 -13 r_9 -1 x_7 -19.5 r_7 +1000000 l_9_7 <= +999932
 c340: +1 y_9 +13 r_9 -1 y_7 +19.5 r_7 +1000000 m_9_7 <= +999964.5
 c341: +1 x_0 -7 r_0 -1 x_8 -12 r_8 +1000000 l_0_8 <= +999945
 c342: +1 y_0 +7 r_0 -1 y_8 +12 r_8 +1000000 m_0_8 <= +999964
 c343: +1 x_1 -10 r_1 -1 x_8 -12 r_8 +1000000 l_1_8 <= +999951.5
 c344: +1 y_1 +10 r_1 -1 y_8 +12 r_8 +1000000 m_1_8 <= +999973.5
 c345: +1 x_2 -18.5 r_2 -1 x_8 -12 r_8 +1000000 l_2_8 <= +999942.5
 c346: +1 y_2 +18.5 r_2 -1 y_8 +12 r_8 +1000000 m_2_8 <= +999973
 c347: +1 x_3 -16 r_3 -1 x_8 -12 r_8 +1000000 l_3_8 <= +999947
 c348: +1 y_3 +16 r_3 -1 y_8 +12 r_8 +1000000 m_3_8 <= +999975
 c349: +1 x_4 -1 r_4 -1 x_8 -12 r_8 +1000000 l_4_8 <= +999954.5
 c350: +1 y_4 +1 r_4 -1 y_8 +12 r_8 +1000000 m_4_8 <= +999967.5
 c351: +1 x_5 -6 r_5 -1 x_8 -12 r_8 +1000000 l_5_8 <= +999946
 c352: +1 y_5 +6 r_5 -1 y_8 +12 r_8 +1000000 m_5_8 <= +999964
 c353: +1 x_6 -12 r_6 -1 x_8 -12 r_8 +1000000 l_6_8 <= +999949
 c354: +1 y_6 +12 r_6 -1 y_8 +12 r_8 +1000000 m_6_8 <= +999973
 c355: +1 x_7 -19.5 r_7 -1 x_8 -12 r_8 +1000000 l_7_8 <= +999942
 c356: +1 y_7 +19.5 r_7 -1 y_8 +12 r_8 +1000000 m_7_8 <= +999973.5
 c357: -24 r_8 +1000000 l_8_8 <= +999952
 c358: +24 r_8 +1000000 m_8_8 <= +999976
 c359: +1 x_9 -13 r_9 -1 x_8 -12 r_8 +1000000 l_9_8 <= +999942
 c360: +1 y_9 +13 r_9 -1 y_8 +12 r_8 +1000000 m_9_8 <= +999967
 c361: +1 x_0 -7 r_0 -1 x_9 -13 r_9 +1000000 l_0_9 <= +999935
 c362: +1 y_0 +7 r_0 -1 y_9 +13 r_9 +1000000 m_0_9 <= +999955
 c363: +1 x_1 -10 r_1 -1 x_9 -13 r_9 +1000000 l_1_9 <= +999941.5
 c364: +1 y_1 +10 r_1 -1 y_9 +13 r_9 +1000000 m_1_9 <= +999964.5
 c365: +1 x_2 -18.5 r_2 -1 x_9 -13 r_9 +1000000 l_2_9 <= +999932.5
 c366: +1 y_2 +18.5 r_2 -1 y_9 +13 r_9 +1000000 m_2_9 <= +999964
 c367: +1 x_3 -16 r_3 -1 x_9 -13 r_9 +1000000 l_3_9 <= +999937
 c368: +1 y_3 +16 r_3 -1 y_9 +13 r_9 +1000000 m_3_9 <= +999966
 c369: +1 x_4 -1 r_4 -1 x_9 -13 r_9 +1000000 l_4_9 <= +999944.5
 c370: +1 y_4 +1 r_4 -1 y_9 +13 r_9 +1000000 m_4_9 <= +999958.5
 c371: +1 x_5 -6 r_5 -1 x_9 -13 r_9 +1000000 l_5_9 <= +999936
 c372: +1 y_5 +6 r_5 -1 y_9 +13 r_9 +1000000 m_5_9 <= +999955
 c373: +1 x_6 -12 r_6 -1 x_9 -13 r_9 +1000000 l_6_9 <= +999939
 c374: +1 y_6 +12 r_6 -1 y_9 +13 r_9 +1000000 m_6_9 <= +999964
 c375: +1 x_7 -19.5 r_7 -1 x_9 -13 r_9 +1000000 l_7_9 <= +999932
 c376: +1 y_7 +19.5 r_7 -1 y_9 +13 r_9 +1000000 m_7_9 <= +999964.5
 c377: +1 x_8 -12 r_8 -1 x_9 -13 r_9 +1000000 l_8_9 <= +999942
 c378: +1 y_8 +12 r_8 -1 y_9 +13 r_9 +1000000 m_8_9 <= +999967
 c379: -26 r_9 +1000000 l_9_9 <= +999932
 c380: +26 r_9 +1000000 m_9_9 <= +999958
 c381: +1 x_0 -7 r_0 +1000000 z_0_0 <= +1000097
 c382: +1 x_0 +7 r_0 -1000000 z_0_0 >= -999969
 c383: +1 y_0 +7 r_0 +1000000 z_0_0 <= +1000260
 c384: +1 y_0 -7 r_0 -1000000 z_0_0 >= -999879
 c385: +1 x_1 -10 r_1 +1000000 z_1_0 <= +1000103.5
 c386: +1 x_1 +10 r_1 -1000000 z_1_0 >= -999975.5
 c387: +1 y_1 +10 r_1 +1000000 z_1_0 <= +1000269.5
 c388: +1 y_1 -10 r_1 -1000000 z_1_0 >= -999888.5
 c389: +1 x_2 -18.5 r_2 +1000000 z_2_0 <= +1000094.5
 c390: +1 x_2 +18.5 r_2 -1000000 z_2_0 >= -999966.5
 c391: +1 y_2 +18.5 r_2 +1000000 z_2_0 <= +1000269
 c392: +1 y_2 -18.5 r_2 -1000000 z_2_0 >= -999888
 c393: +1 x_3 -16 r_3 +1000000 z_3_0 <= +1000099
 c394: +1 x_3 +16 r_3 -1000000 z_3_0 >= -999971
 c395: +1 y_3 +16 r_3 +1000000 z_3_0 <= +1000271
 c396: +1 y_3 -16 r_3 -1000000 z_3_0 >= -999890
 c397: +1 x_4 -1 r_4 +1000000 z_4_0 <= +1000106.5
 c398: +1 x_4 +1 r_4 -1000000 z_4_0 >= -999978.5
 c399: +1 y_4 +1 r_4 +1000000 z_4_0 <= +1000263.5
 c400: +1 y_4 -1 r_4 -1000000 z_4_0 >= -999882.5
 c401: +1 x_5 -6 r_5 +1000000 z_5_0 <= +1000098
 c402: +1 x_5 +6 r_5 -1000000 z_5_0 >= -999970
 c403: +1 y_5 +6 r_5 +1000000 z_5_0 <= +1000260
 c404: +1 y_5 -6 r_5 -1000000 z_5_0 >= -999879
 c405: +1 x_6 -12 r_6 +1000000 z_6_0 <= +1000101
 c406: +1 x_6 +12 r_6 -1000000 z_6_0 >= -999973
 c407: +1 y_6 +12 r_6 +1000000 z_6_0 <= +1000269
 c408: +1 y_6 -12 r_6 -1000000 z_6_0 >= -999888
 c409: +1 x_7 -19.5 r_7 +1000000 z_7_0 <= +1000094
 c410: +1 x_7 +19.5 r_7 -1000000 z_7_0 >= -999966
 c411: +1 y_7 +19.5 r_7 +1000000 z_7_0 <= +1000269.5
 c412: +1 y_7 -19.5 r_7 -1000000 z_7_0 >= -999888.5
 c413: +1 x_8 -12 r_8 +1000000 z_8_0 <= +1000104
 c414: +1 x_8 +12 r_8 -1000000 z_8_0 >= -999976
 c415: +1 y_8 +12 r_8 +1000000 z_8_0 <= +1000272
 c416: +1 y_8 -12 r_8 -1000000 z_8_0 >= -999891
 c417: +1 x_9 -13 r_9 +1000000 z_9_0 <= +1000094
 c418: +1 x_9 +13 r_9 -1000000 z_9_0 >= -999966
 c419: +1 y_9 +13 r_9 +1000000 z_9_0 <= +1000263
 c420: +1 y_9 -13 r_9 -1000000 z_9_0 >= -999882
 c421: +1 x_0 -7 r_0 +1000000 z_0_1 <= +1000466
 c422: +1 x_0 +7 r_0 -1000000 z_0_1 >= -999664
 c423: +1 y_0 +7 r_0 +1000000 z_0_1 <= +1000238
 c424: +1 y_0 -7 r_0 -1000000 z_0_1 >= -999886
 c425: +1 x_1 -10 r_1 +1000000 z_1_1 <= +1000472.5
 c426: +1 x_1 +10 r_1 -1000000 z_1_1 >= -999670.5
 c427: +1 y_1 +10 r_1 +1000000 z_1_1 <= +1000247.5
 c428: +1 y_1 -10 r_1 -1000000 z_1_1 >= -999895.5
 c429: +1 x_2 -18.5 r_2 +1000000 z_2_1 <= +1000463.5
 c430: +1 x_2 +18.5 r_2 -1000000 z_2_1 >= -999661.5
 c431: +1 y_2 +18.5 r_2 +1000000 z_2_1 <= +1000247
 c432: +1 y_2 -18.5 r_2 -1000000 z_2_1 >= -999895
 c433: +1 x_3 -16 r_3 +1000000 z_3_1 <= +1000468
 c434: +1 x_3 +16 r_3 -1000000 z_3_1 >= -999666
 c435: +1 y_3 +16 r_3 +1000000 z_3_1 <= +1000249
 c436: +1 y_3 -16 r_3 -1000000 z_3_1 >= -999897
 c437: +1 x_4 -1 r_4 +1000000 z_4_1 <= +1000475.5
 c438: +1 x_4 +1 r_4 -1000000 z_4_1 >= -999673.5
 c439: +1 y_4 +1 r_4 +1000000 z_4_1 <= +1000241.5
 c440: +1 y_4 -1 r_4 -1000000 z_4_1 >= -999889.5
 c441: +1 x_5 -6 r_5 +1000000 z_5_1 <= +1000467
 c442: +1 x_5 +6 r_5 -1000000 z_5_1 >= -999665
 c443: +1 y_5 +6 r_5 +1000000 z_5_1 <= +1000238
 c444: +1 y_5 -6 r_5 -1000000 z_5_1 >= -999886
 c445: +1 x_6 -12 r_6 +1000000 z_6_1 <= +1000470
 c446: +1 x_6 +12 r_6 -1000000 z_6_1 >= -999668
 c447: +1 y_6 +12 r_6 +1000000 z_6_1 <= +1000247
 c448: +1 y_6 -12 r_6 -1000000 z_6_1 >= -999895
 c449: +1 x_7 -19.5 r_7 +1000000 z_7_1 <= +1000463
 c450: +1 x_7 +19.5 r_7 -1000000 z_7_1 >= -999661
 c451: +1 y_7 +19.5 r_7 +1000000 z_7_1 <= +1000247.5
 c452: +1 y_7 -19.5 r_7 -1000000 z_7_1 >= -999895.5
 c453: +1 x_8 -12 r_8 +1000000 z_8_1 <= +1000473
 c454: +1 x_8 +12 r_8 -1000000 z_8_1 >= -999671
 c455: +1 y_8 +12 r_8 +1000000 z_8_1 <= +1000250
 c456: +1 y_8 -12 r_8 -1000000 z_8_1 >= -999898
 c457: +1 x_9 -13 r_9 +1000000 z_9_1 <= +1000463
 c458: +1 x_9 +13 r_9 -1000000 z_9_1 >= -999661
 c459: +1 y_9 +13 r_9 +1000000 z_9_1 <= +1000241
 c460: +1 y_9 -13 r_9 -1000000 z_9_1 >= -999889
Bounds
 0 <= p_0 <= 1
 0 <= p_1 <= 1
 0 <= r_0 <= 1
 0 <= r_1 <= 1
 0 <= r_2 <= 1
 0 <= r_3 <= 1
 0 <= r_4 <= 1
 0 <= r_5 <= 1
 0 <= r_6 <= 1
 0 <= r_7 <= 1
 0 <= r_8 <= 1
 0 <= r_9 <= 1
 0 <= z_0_0 <= 1
 0 <= z_0_1 <= 1
 0 <= z_1_0 <= 1
 0 <= z_1_1 <= 1
 0 <= z_2_0 <= 1
 0 <= z_2_1 <= 1
 0 <= z_3_0 <= 1
 0 <= z_3_1 <= 1
 0 <= z_4_0 <= 1
 0 <= z_4_1 <= 1
 0 <= z_5_0 <= 1
 0 <= z_5_1 <= 1
 0 <= z_6_0 <= 1
 0 <= z_6_1 <= 1
 0 <= z_7_0 <= 1
 0 <= z_7_1 <= 1
 0 <= z_8_0 <= 1
 0 <= z_8_1 <= 1
 0 <= z_9_0 <= 1
 0 <= z_9_1 <= 1
 0 <= l_0_0 <= 1
 0 <= l_0_1 <= 1
 0 <= l_0_2 <= 1
 0 <= l_0_3 <= 1
 0 <= l_0_4 <= 1
 0 <= l_0_5 <= 1
 0 <= l_0_6 <= 1
 0 <= l_0_7 <= 1
 0 <= l_0_8 <= 1
 0 <= l_0_9 <= 1
 0 <= l_1_0 <= 1
 0 <= l_1_1 <= 1
 0 <= l_1_2 <= 1
 0 <= l_1_3 <= 1
 0 <= l_1_4 <= 1
 0 <= l_1_5 <= 1
 0 <= l_1_6 <= 1
 0 <= l_1_7 <= 1
 0 <= l_1_8 <= 1
 0 <= l_1_9 <= 1
 0 <= l_2_0 <= 1
 0 <= l_2_1 <= 1
 0 <= l_2_2 <= 1
 0 <= l_2_3 <= 1
 0 <= l_2_4 <= 1
 0 <= l_2_5 <= 1
 0 <= l_2_6 <= 1
 0 <= l_2_7 <= 1
 0 <= l_2_8 <= 1
 0 <= l_2_9 <= 1
 0 <= l_3_0 <= 1
 0 <= l_3_1 <= 1
 0 <= l_3_2 <= 1
 0 <= l_3_3 <= 1
 0 <= l_3_4 <= 1
 0 <= l_3_5 <= 1
 0 <= l_3_6 <= 1
 0 <= l_3_7 <= 1
 0 <= l_3_8 <= 1
 0 <= l_3_9 <= 1
 0 <= l_4_0 <= 1
 0 <= l_4_1 <= 1
 0 <= l_4_2 <= 1
 0 <= l_4_3 <= 1
 0 <= l_4_4 <= 1
 0 <= l_4_5 <= 1
 0 <= l_4_6 <= 1
 0 <= l_4_7 <= 1
 0 <= l_4_8 <= 1
 0 <= l_4_9 <= 1
 0 <= l_5_0 <= 1
 0 <= l_5_1 <= 1
 0 <= l_5_2 <= 1
 0 <= l_5_3 <= 1
 0 <= l_5_4 <= 1
 0 <= l_5_5 <= 1
 0 <= l_5_6 <= 1
 0 <= l_5_7 <= 1
 0 <= l_5_8 <= 1
 0 <= l_5_9 <= 1
 0 <= l_6_0 <= 1
 0 <= l_6_1 <= 1
 0 <= l_6_2 <= 1
 0 <= l_6_3 <= 1
 0 <= l_6_4 <= 1
 0 <= l_6_5 <= 1
 0 <= l_6_6 <= 1
 0 <= l_6_7 <= 1
 0 <= l_6_8 <= 1
 0 <= l_6_9 <= 1
 0 <= l_7_0 <= 1
 0 <= l_7_1 <= 1
 0 <= l_7_2 <= 1
 0 <= l_7_3 <= 1
 0 <= l_7_4 <= 1
 0 <= l_7_5 <= 1
 0 <= l_7_6 <= 1
 0 <= l_7_7 <= 1
 0 <= l_7_8 <= 1
 0 <= l_7_9 <= 1
 0 <= l_8_0 <= 1
 0 <= l_8_1 <= 1
 0 <= l_8_2 <= 1
 0 <= l_8_3 <= 1
 0 <= l_8_4 <= 1
 0 <= l_8_5 <= 1
 0 <= l_8_6 <= 1
 0 <= l_8_7 <= 1
 0 <= l_8_8 <= 1
 0 <= l_8_9 <= 1
 0 <= l_9_0 <= 1
 0 <= l_9_1 <= 1
 0 <= l_9_2 <= 1
 0 <= l_9_3 <= 1
 0 <= l_9_4 <= 1
 0 <= l_9_5 <= 1
 0 <= l_9_6 <= 1
 0 <= l_9_7 <= 1
 0 <= l_9_8 <= 1
 0 <= l_9_9 <= 1
 0 <= m_0_0 <= 1
 0 <= m_0_1 <= 1
 0 <= m_0_2 <= 1
 0 <= m_0_3 <= 1
 0 <= m_0_4 <= 1
 0 <= m_0_5 <= 1
 0 <= m_0_6 <= 1
 0 <= m_0_7 <= 1
 0 <= m_0_8 <= 1
 0 <= m_0_9 <= 1
 0 <= m_1_0 <= 1
 0 <= m_1_1 <= 1
 0 <= m_1_2 <= 1
 0 <= m_1_3 <= 1
 0 <= m_1_4 <= 1
 0 <= m_1_5 <= 1
 0 <= m_1_6 <= 1
 0 <= m_1_7 <= 1
 0 <= m_1_8 <= 1
 0 <= m_1_9 <= 1
 0 <= m_2_0 <= 1
 0 <= m_2_1 <= 1
 0 <= m_2_2 <= 1
 0 <= m_2_3 <= 1
 0 <= m_2_4 <= 1
 0 <= m_2_5 <= 1
 0 <= m_2_6 <= 1
 0 <= m_2_7 <= 1
 0 <= m_2_8 <= 1
 0 <= m_2_9 <= 1
 0 <= m_3_0 <= 1
 0 <= m_3_1 <= 1
 0 <= m_3_2 <= 1
 0 <= m_3_3 <= 1
 0 <= m_3_4 <= 1
 0 <= m_3_5 <= 1
 0 <= m_3_6 <= 1
 0 <= m_3_7 <= 1
 0 <= m_3_8 <= 1
 0 <= m_3_9 <= 1
 0 <= m_4_0 <= 1
 0 <= m_4_1 <= 1
 0 <= m_4_2 <= 1
 0 <= m_4_3 <= 1
 0 <= m_4_4 <= 1
 0 <= m_4_5 <= 1
 0 <= m_4_6 <= 1
 0 <= m_4_7 <= 1
 0 <= m_4_8 <= 1
 0 <= m_4_9 <= 1
 0 <= m_5_0 <= 1
 0 <= m_5_1 <= 1
 0 <= m_5_2 <= 1
 0 <= m_5_3 <= 1
 0 <= m_5_4 <= 1
 0 <= m_5_5 <= 1
 0 <= m_5_6 <= 1
 0 <= m_5_7 <= 1
 0 <= m_5_8 <= 1
 0 <= m_5_9 <= 1
 0 <= m_6_0 <= 1
 0 <= m_6_1 <= 1
 0 <= m_6_2 <= 1
 0 <= m_6_3 <= 1
 0 <= m_6_4 <= 1
 0 <= m_6_5 <= 1
 0 <= m_6_6 <= 1
 0 <= m_6_7 <= 1
 0 <= m_6_8 <= 1
 0 <= m_6_9 <= 1
 0 <= m_7_0 <= 1
 0 <= m_7_1 <= 1
 0 <= m_7_2 <= 1
 0 <= m_7_3 <= 1
 0 <= m_7_4 <= 1
 0 <= m_7_5 <= 1
 0 <= m_7_6 <= 1
 0 <= m_7_7 <= 1
 0 <= m_7_8 <= 1
 0 <= m_7_9 <= 1
 0 <= m_8_0 <= 1
 0 <= m_8_1 <= 1
 0 <= m_8_2 <= 1
 0 <= m_8_3 <= 1
 0 <= m_8_4 <= 1
 0 <= m_8_5 <= 1
 0 <= m_8_6 <= 1
 0 <= m_8_7 <= 1
 0 <= m_8_8 <= 1
 0 <= m_8_9 <= 1
 0 <= m_9_0 <= 1
 0 <= m_9_1 <= 1
 0 <= m_9_2 <= 1
 0 <= m_9_3 <= 1
 0 <= m_9_4 <= 1
 0 <= m_9_5 <= 1
 0 <= m_9_6 <= 1
 0 <= m_9_7 <= 1
 0 <= m_9_8 <= 1
 0 <= m_9_9 <= 1
Binaries
 p_0 p_1 r_0 r_1 r_2 r_3 r_4 r_5 r_6 r_7 r_8 r_9 z_0_0 z_0_1 z_1_0 z_1_1 z_2_0 z_2_1 z_3_0 z_3_1 z_4_0
 z_4_1 z_5_0 z_5_1 z_6_0 z_6_1 z_7_0 z_7_1 z_8_0 z_8_1 z_9_0 z_9_1 l_0_0 l_0_1 l_0_2 l_0_3 l_0_4 l_0_5
 l_0_6 l_0_7 l_0_8 l_0_9 l_1_0 l_1_1 l_1_2 l_1_3 l_1_4 l_1_5 l_1_6 l_1_7 l_1_8 l_1_9 l_2_0 l_2_1 l_2_2
 l_2_3 l_2_4 l_2_5 l_2_6 l_2_7 l_2_8 l_2_9 l_3_0 l_3_1 l_3_2 l_3_3 l_3_4 l_3_5 l_3_6 l_3_7 l_3_8 l_3_9
 l_4_0 l_4_1 l_4_2 l_4_3 l_4_4 l_4_5 l_4_6 l_4_7 l_4_8 l_4_9 l_5_0 l_5_1 l_5_2 l_5_3 l_5_4 l_5_5 l_5_6
 l_5_7 l_5_8 l_5_9 l_6_0 l_6_1 l_6_2 l_6_3 l_6_4 l_6_5 l_6_6 l_6_7 l_6_8 l_6_9 l_7_0 l_7_1 l_7_2 l_7_3
 l_7_4 l_7_5 l_7_6 l_7_7 l_7_8 l_7_9 l_8_0 l_8_1 l_8_2 l_8_3 l_8_4 l_8_5 l_8_6 l_8_7 l_8_8 l_8_9 l_9_0
 l_9_1 l_9_2 l_9_3 l_9_4 l_9_5 l_9_6 l_9_7 l_9_8 l_9_9 m_0_0 m_0_1 m_0_2 m_0_3 m_0_4 m_0_5 m_0_6 m_0_7
 m_0_8 m_0_9 m_1_0 m_1_1 m_1_2 m_1_3 m_1_4 m_1_5 m_1_6 m_1_7 m_1_8 m_1_9 m_2_0 m_2_1 m_2_2 m_2_3 m_2_4
 m_2_5 m_2_6 m_2_7 m_2_8 m_2_9 m_3_0 m_3_1 m_3_2 m_3_3 m_3_4 m_3_5 m_3_6 m_3_7 m_3_8 m_3_9 m_4_0 m_4_1
 m_4_2 m_4_3 m_4_4 m_4_5 m_4_6 m_4_7 m_4_8 m_4_9 m_5_0 m_5_1 m_5_2 m_5_3 m_5_4 m_5_5 m_5_6 m_5_7 m_5_8
 m_5_9 m_6_0 m_6_1 m_6_2 m_6_3 m_6_4 m_6_5 m_6_6 m_6_7 m_6_8 m_6_9 m_7_0 m_7_1 m_7_2 m_7_3 m_7_4 m_7_5
 m_7_6 m_7_7 m_7_8 m_7_9 m_8_0 m_8_1 m_8_2 m_8_3 m_8_4 m_8_5 m_8_6 m_8_7 m_8_8 m_8_9 m_9_0 m_9_1 m_9_2
 m_9_3 m_9_4 m_9_5 m_9_6 m_9_7 m_9_8 m_9_9
End
